s td 97 14 117
b 1 9 45 91
b 2 10 55 82
b 3 11 55 82
b 4 22 45 91
b 5 7 24 103 117
b 6 29 55 72
b 7 40 53 85
b 8 8 41 91
b 9 46 50 88
b 10 51 83 88
b 11 54 103 107 109
b 12 16 56 58
b 13 16 62 73
b 14 8 63 91
b 15 55 65 72
b 16 16 69 73
b 17 30 34 71 74 94 111 114 116
b 18 38 55 72
b 19 16 19 73
b 20 7 77 103
b 21 38 55 82
b 22 64 68 89
b 23 13 95 98
b 24 16 58 102
b 25 16 19 58
b 26 49 91 113
b 27 19 31 38 49 80 91 100
b 28 1 7 8 84
b 29 12 39 61 105
b 30 13 21 98
b 31 18 23 39 61
b 32 4 20 26 78
b 33 37 45 70 107
b 34 5 33 48 78
b 35 27 50 88 100
b 36 53 85 86
b 37 76 83 88 100
b 38 21 85 86
b 39 52 87 103 104
b 40 21 92 98
b 41 4 42 43 115
b 42 3 28 103 107
b 43 23 39 61 79
b 44 25 36 60 99
b 45 27 88 93 100
b 46 32 57 105 112
b 47 7 36 60 99 103 117
b 48 7 36 99 103 117
b 49 7 8 16 31 55 61 74 75 88 91 99 100 103 116
b 50 8 16 31 55 61 74 75 88 91 99 100 103 107 116
b 51 8 16 47 55 61 74 88 91 99 100 103 107 116
b 52 8 16 47 55 61 88 91 99 100 103 105 107 116
b 53 47 88 91 93 100 103 105 107
b 54 14 47 91 93 103 105 107
b 55 14 28 93 103 107
b 56 14 47 91 93 105 107 112
b 57 14 32 93 105 112
b 58 14 45 47 91 107 112
b 59 8 16 39 47 55 61 88 99 100 103 105 116
b 60 8 39 47 61 79 88 100
b 61 8 47 76 79 88 100
b 62 8 15 47 76 79
b 63 8 15 47 59 79
b 64 8 15 47 64 76
b 65 7 16 31 55 61 74 75 80 88 91 99 100 103 116
b 66 16 19 31 38 55 61 74 80 88 91 99 100 103 116
b 67 16 19 31 38 55 74 80 88 99 100 103 111 116
b 68 16 19 31 38 55 74 88 94 100 103 111 116
b 69 16 19 34 38 55 74 88 94 100 111 116
b 70 16 19 30 34 38 55 74 94 111 116
b 71 30 34 38 55 74 94 111 114 116
b 72 7 36 80 99 103
b 73 15 64 68 76
b 74 21 33 66 86
b 75 21 33 66 92
b 76 75 99 101 106
b 77 75 99 101 103 107 109
b 78 75 99 103 107 109
b 79 6 16 99 103 110
b 80 6 35 52 103 104
b 81 6 35 44 99 103 104
b 82 6 21 35 44 67 90 96 99 103
b 83 4 6 21 26 67 90 96 99 103
b 84 4 6 16 21 26 55 90 96 99 103
b 85 4 16 21 26 55 78 96 99 103
b 86 5 16 21 26 55 78 96 99 103
b 87 5 16 21 26 55 78 88 99 103
b 88 5 16 21 39 55 78 88 97 99 103
b 89 5 16 39 47 55 88 97 99 103
b 90 5 21 39 66 78 97
b 91 5 21 33 66 78
b 92 4 6 16 42 55 90 99 103
b 93 4 6 42 43 90
b 94 16 42 55 99 103 108
b 95 2 16 26 55 88 99 103
b 96 5 16 17 47 55 88 99 103
b 97 19 31 38 61 80 81 91 100
1 58
2 21
3 21
4 58
5 48
6 18
7 36
8 49
9 35
10 37
11 78
12 25
13 19
14 49
15 18
16 19
17 71
18 66
19 66
20 49
21 66
22 73
23 30
24 25
25 66
26 27
27 66
28 49
29 59
30 40
31 43
32 85
33 58
34 91
35 45
36 38
37 61
38 74
39 80
40 75
41 93
42 55
43 60
44 47
45 53
46 57
47 48
48 72
49 50
49 65
50 78
50 51
51 52
52 53
52 59
53 54
54 55
54 56
56 57
56 58
59 89
59 60
60 61
61 62
62 63
62 64
64 73
65 66
65 72
66 97
66 67
67 68
68 69
69 70
70 71
74 91
75 91
76 77
77 78
79 84
80 81
81 82
82 83
83 84
84 92
84 85
85 86
86 87
87 95
87 88
88 90
88 89
89 96
90 91
92 94
92 93
